clingo version 5.4.0
Reading from stdin
Solving...
*** Info : (clingo): INTERRUPTED by signal!
UNKNOWN

TIME LIMIT   : 1
Models       : 0+
Calls        : 1
Time         : 7199.988s (Solving: 7194.27s 1st Model: 0.00s Unsat: 0.00s)
CPU Time     : 5285.148s
